(set-logic HORN)
(declare-datatypes ((Bool_254 0)) (((false_254 ) (true_254 ))))
(declare-fun diseqBool_116 (Bool_254 Bool_254) Bool)
(declare-fun isfalse_116 (Bool_254) Bool)
(declare-fun istrue_116 (Bool_254) Bool)
(assert (isfalse_116 false_254))
(assert (istrue_116 true_254))
(assert (diseqBool_116 false_254 true_254))
(assert (diseqBool_116 true_254 false_254))
(declare-fun and_254 (Bool_254 Bool_254 Bool_254) Bool)
(declare-fun or_259 (Bool_254 Bool_254 Bool_254) Bool)
(declare-fun hence_254 (Bool_254 Bool_254 Bool_254) Bool)
(declare-fun not_257 (Bool_254 Bool_254) Bool)
(assert (and_254 false_254 false_254 false_254))
(assert (and_254 false_254 true_254 false_254))
(assert (and_254 false_254 false_254 true_254))
(assert (and_254 true_254 true_254 true_254))
(assert (or_259 false_254 false_254 false_254))
(assert (or_259 true_254 true_254 false_254))
(assert (or_259 true_254 false_254 true_254))
(assert (or_259 true_254 true_254 true_254))
(assert (hence_254 true_254 false_254 false_254))
(assert (hence_254 false_254 true_254 false_254))
(assert (hence_254 true_254 false_254 true_254))
(assert (hence_254 true_254 true_254 true_254))
(assert (not_257 true_254 false_254))
(assert (not_257 false_254 true_254))
(declare-datatypes ((Nat_428 0)) (((zero_103 ) (succ_101 (p_290 Nat_428)))))
(declare-fun diseqNat_428 (Nat_428 Nat_428) Bool)
(declare-fun p_291 (Nat_428 Nat_428) Bool)
(declare-fun iszero_101 (Nat_428) Bool)
(declare-fun issucc_101 (Nat_428) Bool)
(assert (forall ((x_46539 Nat_428))
	(p_291 x_46539 (succ_101 x_46539))))
(assert (iszero_101 zero_103))
(assert (forall ((x_46541 Nat_428))
	(issucc_101 (succ_101 x_46541))))
(assert (forall ((x_46542 Nat_428))
	(diseqNat_428 zero_103 (succ_101 x_46542))))
(assert (forall ((x_46543 Nat_428))
	(diseqNat_428 (succ_101 x_46543) zero_103)))
(assert (forall ((x_46544 Nat_428) (x_46545 Nat_428))
	(=> (diseqNat_428 x_46544 x_46545)
	    (diseqNat_428 (succ_101 x_46544) (succ_101 x_46545)))))
(declare-fun leq_37 (Bool_254 Nat_428 Nat_428) Bool)
(assert (forall ((x_46523 Bool_254) (x_46521 Nat_428) (z_1504 Nat_428))
	(=> (leq_37 x_46523 z_1504 x_46521)
	    (leq_37 x_46523 (succ_101 z_1504) (succ_101 x_46521)))))
(assert (forall ((z_1504 Nat_428))
	(leq_37 false_254 (succ_101 z_1504) zero_103)))
(assert (forall ((y_1668 Nat_428))
	(leq_37 true_254 zero_103 y_1668)))
(assert (forall ((x_46522 Nat_428) (y_1669 Nat_428))
	(=>	(and true
			(diseqNat_428 x_46522 x_46522)
			(leq_37 true_254 x_46522 y_1669)
			(leq_37 true_254 x_46522 y_1669))
		false)))
(assert (forall ((x_46522 Nat_428) (y_1669 Nat_428))
	(=>	(and true
			(diseqNat_428 y_1669 x_46522)
			(leq_37 false_254 x_46522 y_1669)
			(leq_37 true_254 x_46522 y_1669))
		false)))
(assert (forall ((x_46522 Nat_428) (y_1669 Nat_428))
	(=>	(and true
			(diseqNat_428 x_46522 x_46522)
			(leq_37 true_254 x_46522 x_46522)
			(leq_37 false_254 x_46522 y_1669))
		false)))
(assert (forall ((x_46522 Nat_428) (y_1669 Nat_428))
	(=>	(and true
			(diseqNat_428 x_46522 x_46522)
			(leq_37 false_254 x_46522 x_46522)
			(leq_37 false_254 x_46522 y_1669))
		false)))
(check-sat)
